150 58414888
144 81 100 85 96 42 69 147 90 36 94 14 75 61 31 93 29 114 21 117 111 119 0 50 102 35 103 52
139 121 48 148 54 4 25 58 104 15 116 131 106 113 33 40 46 105 59 115 65 18 101 142 70 72
146 5 8 76 10 56 123 134 2 62 66 67 107 143 51 43 77 24 133 37 39 88 87 44 47 26 38 60 6 137
13 109 99 7 30 68 145 130 89 108 45 53 91 17 57 34 79 136 9 19 122 129 120 124 23 83 11 63
126 3 92 86 78 16 84 140 27 127 135 112 132 74 138 49 118 97 28 12 41 95 73 32 98 149 125 55
22 141 1 64 80 82 110 71 20 128
